c Generated after 2 tries
c Graph with 200 nodes and 650 edges, Max edges:19900
c generated from an undirected graph
c to solve unweighted MaxCut
p cnf 200 1300
1 15 0
-1 -15 0
1 45 0
-1 -45 0
1 72 0
-1 -72 0
1 82 0
-1 -82 0
1 83 0
-1 -83 0
1 92 0
-1 -92 0
1 97 0
-1 -97 0
1 128 0
-1 -128 0
2 14 0
-2 -14 0
2 16 0
-2 -16 0
2 63 0
-2 -63 0
2 149 0
-2 -149 0
2 189 0
-2 -189 0
2 198 0
-2 -198 0
3 5 0
-3 -5 0
3 44 0
-3 -44 0
3 57 0
-3 -57 0
3 60 0
-3 -60 0
3 89 0
-3 -89 0
3 98 0
-3 -98 0
3 135 0
-3 -135 0
3 179 0
-3 -179 0
4 8 0
-4 -8 0
4 27 0
-4 -27 0
4 110 0
-4 -110 0
4 133 0
-4 -133 0
4 135 0
-4 -135 0
4 162 0
-4 -162 0
5 8 0
-5 -8 0
5 32 0
-5 -32 0
5 44 0
-5 -44 0
5 62 0
-5 -62 0
5 81 0
-5 -81 0
5 92 0
-5 -92 0
5 95 0
-5 -95 0
5 109 0
-5 -109 0
5 172 0
-5 -172 0
6 30 0
-6 -30 0
6 48 0
-6 -48 0
6 110 0
-6 -110 0
7 44 0
-7 -44 0
7 46 0
-7 -46 0
7 71 0
-7 -71 0
7 73 0
-7 -73 0
7 87 0
-7 -87 0
7 88 0
-7 -88 0
7 100 0
-7 -100 0
7 136 0
-7 -136 0
7 182 0
-7 -182 0
8 29 0
-8 -29 0
8 56 0
-8 -56 0
8 57 0
-8 -57 0
8 66 0
-8 -66 0
8 92 0
-8 -92 0
8 98 0
-8 -98 0
8 117 0
-8 -117 0
8 176 0
-8 -176 0
8 196 0
-8 -196 0
9 18 0
-9 -18 0
9 37 0
-9 -37 0
9 41 0
-9 -41 0
9 42 0
-9 -42 0
9 51 0
-9 -51 0
9 73 0
-9 -73 0
9 107 0
-9 -107 0
9 138 0
-9 -138 0
9 176 0
-9 -176 0
9 191 0
-9 -191 0
10 18 0
-10 -18 0
10 29 0
-10 -29 0
10 58 0
-10 -58 0
10 70 0
-10 -70 0
10 110 0
-10 -110 0
10 112 0
-10 -112 0
10 192 0
-10 -192 0
11 39 0
-11 -39 0
11 54 0
-11 -54 0
11 130 0
-11 -130 0
11 149 0
-11 -149 0
11 199 0
-11 -199 0
12 45 0
-12 -45 0
12 72 0
-12 -72 0
12 82 0
-12 -82 0
12 90 0
-12 -90 0
12 103 0
-12 -103 0
12 131 0
-12 -131 0
12 143 0
-12 -143 0
12 173 0
-12 -173 0
13 30 0
-13 -30 0
13 49 0
-13 -49 0
13 52 0
-13 -52 0
13 86 0
-13 -86 0
13 114 0
-13 -114 0
13 198 0
-13 -198 0
14 58 0
-14 -58 0
14 64 0
-14 -64 0
14 106 0
-14 -106 0
14 142 0
-14 -142 0
15 33 0
-15 -33 0
15 67 0
-15 -67 0
15 113 0
-15 -113 0
15 146 0
-15 -146 0
15 188 0
-15 -188 0
16 30 0
-16 -30 0
16 83 0
-16 -83 0
16 101 0
-16 -101 0
16 129 0
-16 -129 0
16 198 0
-16 -198 0
17 37 0
-17 -37 0
17 62 0
-17 -62 0
17 79 0
-17 -79 0
17 122 0
-17 -122 0
17 137 0
-17 -137 0
17 141 0
-17 -141 0
18 166 0
-18 -166 0
19 42 0
-19 -42 0
19 90 0
-19 -90 0
19 141 0
-19 -141 0
20 105 0
-20 -105 0
20 130 0
-20 -130 0
20 152 0
-20 -152 0
20 189 0
-20 -189 0
21 48 0
-21 -48 0
21 65 0
-21 -65 0
21 86 0
-21 -86 0
21 87 0
-21 -87 0
21 153 0
-21 -153 0
21 188 0
-21 -188 0
21 197 0
-21 -197 0
22 35 0
-22 -35 0
22 72 0
-22 -72 0
22 78 0
-22 -78 0
22 82 0
-22 -82 0
22 143 0
-22 -143 0
22 145 0
-22 -145 0
22 151 0
-22 -151 0
22 198 0
-22 -198 0
23 26 0
-23 -26 0
23 79 0
-23 -79 0
23 87 0
-23 -87 0
23 101 0
-23 -101 0
23 115 0
-23 -115 0
23 117 0
-23 -117 0
24 62 0
-24 -62 0
24 64 0
-24 -64 0
24 100 0
-24 -100 0
24 180 0
-24 -180 0
25 63 0
-25 -63 0
25 137 0
-25 -137 0
25 178 0
-25 -178 0
26 42 0
-26 -42 0
26 56 0
-26 -56 0
26 62 0
-26 -62 0
26 95 0
-26 -95 0
26 139 0
-26 -139 0
26 145 0
-26 -145 0
27 33 0
-27 -33 0
27 44 0
-27 -44 0
27 84 0
-27 -84 0
27 172 0
-27 -172 0
28 69 0
-28 -69 0
28 76 0
-28 -76 0
28 79 0
-28 -79 0
28 107 0
-28 -107 0
28 124 0
-28 -124 0
28 134 0
-28 -134 0
28 154 0
-28 -154 0
29 167 0
-29 -167 0
30 34 0
-30 -34 0
30 118 0
-30 -118 0
30 136 0
-30 -136 0
31 76 0
-31 -76 0
31 153 0
-31 -153 0
32 68 0
-32 -68 0
32 115 0
-32 -115 0
32 123 0
-32 -123 0
32 189 0
-32 -189 0
33 37 0
-33 -37 0
33 42 0
-33 -42 0
33 46 0
-33 -46 0
33 71 0
-33 -71 0
33 86 0
-33 -86 0
33 109 0
-33 -109 0
33 120 0
-33 -120 0
33 130 0
-33 -130 0
33 188 0
-33 -188 0
33 194 0
-33 -194 0
34 70 0
-34 -70 0
34 81 0
-34 -81 0
34 98 0
-34 -98 0
34 151 0
-34 -151 0
34 161 0
-34 -161 0
34 185 0
-34 -185 0
35 124 0
-35 -124 0
35 133 0
-35 -133 0
35 137 0
-35 -137 0
35 164 0
-35 -164 0
35 198 0
-35 -198 0
35 199 0
-35 -199 0
36 55 0
-36 -55 0
36 100 0
-36 -100 0
36 119 0
-36 -119 0
36 143 0
-36 -143 0
36 160 0
-36 -160 0
36 164 0
-36 -164 0
36 195 0
-36 -195 0
37 128 0
-37 -128 0
37 148 0
-37 -148 0
37 151 0
-37 -151 0
37 175 0
-37 -175 0
38 92 0
-38 -92 0
38 101 0
-38 -101 0
38 190 0
-38 -190 0
39 44 0
-39 -44 0
39 96 0
-39 -96 0
39 118 0
-39 -118 0
39 145 0
-39 -145 0
39 186 0
-39 -186 0
40 56 0
-40 -56 0
40 89 0
-40 -89 0
40 108 0
-40 -108 0
40 126 0
-40 -126 0
40 145 0
-40 -145 0
41 45 0
-41 -45 0
41 95 0
-41 -95 0
41 110 0
-41 -110 0
41 122 0
-41 -122 0
41 136 0
-41 -136 0
41 170 0
-41 -170 0
41 175 0
-41 -175 0
42 45 0
-42 -45 0
42 47 0
-42 -47 0
42 55 0
-42 -55 0
42 105 0
-42 -105 0
42 117 0
-42 -117 0
42 172 0
-42 -172 0
42 194 0
-42 -194 0
43 53 0
-43 -53 0
43 67 0
-43 -67 0
43 73 0
-43 -73 0
43 86 0
-43 -86 0
44 74 0
-44 -74 0
44 88 0
-44 -88 0
44 152 0
-44 -152 0
44 186 0
-44 -186 0
44 192 0
-44 -192 0
45 151 0
-45 -151 0
45 163 0
-45 -163 0
46 90 0
-46 -90 0
46 120 0
-46 -120 0
46 174 0
-46 -174 0
46 188 0
-46 -188 0
46 200 0
-46 -200 0
47 81 0
-47 -81 0
47 103 0
-47 -103 0
47 143 0
-47 -143 0
47 158 0
-47 -158 0
47 175 0
-47 -175 0
47 176 0
-47 -176 0
47 195 0
-47 -195 0
48 50 0
-48 -50 0
48 86 0
-48 -86 0
48 89 0
-48 -89 0
48 92 0
-48 -92 0
48 94 0
-48 -94 0
48 114 0
-48 -114 0
48 174 0
-48 -174 0
48 188 0
-48 -188 0
49 66 0
-49 -66 0
49 97 0
-49 -97 0
49 112 0
-49 -112 0
49 156 0
-49 -156 0
50 77 0
-50 -77 0
50 119 0
-50 -119 0
50 133 0
-50 -133 0
50 135 0
-50 -135 0
51 58 0
-51 -58 0
51 136 0
-51 -136 0
51 147 0
-51 -147 0
51 156 0
-51 -156 0
51 197 0
-51 -197 0
52 101 0
-52 -101 0
52 111 0
-52 -111 0
52 150 0
-52 -150 0
53 58 0
-53 -58 0
53 76 0
-53 -76 0
53 125 0
-53 -125 0
53 187 0
-53 -187 0
54 73 0
-54 -73 0
54 107 0
-54 -107 0
54 133 0
-54 -133 0
54 156 0
-54 -156 0
54 160 0
-54 -160 0
54 176 0
-54 -176 0
55 63 0
-55 -63 0
55 85 0
-55 -85 0
55 91 0
-55 -91 0
55 99 0
-55 -99 0
55 132 0
-55 -132 0
55 142 0
-55 -142 0
55 146 0
-55 -146 0
55 170 0
-55 -170 0
56 69 0
-56 -69 0
57 97 0
-57 -97 0
57 110 0
-57 -110 0
57 120 0
-57 -120 0
57 145 0
-57 -145 0
57 160 0
-57 -160 0
57 171 0
-57 -171 0
57 187 0
-57 -187 0
58 100 0
-58 -100 0
58 124 0
-58 -124 0
58 159 0
-58 -159 0
58 162 0
-58 -162 0
59 63 0
-59 -63 0
59 94 0
-59 -94 0
59 157 0
-59 -157 0
59 173 0
-59 -173 0
59 192 0
-59 -192 0
60 64 0
-60 -64 0
60 83 0
-60 -83 0
60 174 0
-60 -174 0
61 93 0
-61 -93 0
61 98 0
-61 -98 0
61 126 0
-61 -126 0
61 136 0
-61 -136 0
61 174 0
-61 -174 0
62 76 0
-62 -76 0
62 92 0
-62 -92 0
62 108 0
-62 -108 0
62 124 0
-62 -124 0
62 157 0
-62 -157 0
63 166 0
-63 -166 0
63 177 0
-63 -177 0
64 81 0
-64 -81 0
64 85 0
-64 -85 0
65 101 0
-65 -101 0
65 119 0
-65 -119 0
65 152 0
-65 -152 0
65 196 0
-65 -196 0
66 80 0
-66 -80 0
66 168 0
-66 -168 0
66 182 0
-66 -182 0
66 194 0
-66 -194 0
67 90 0
-67 -90 0
67 93 0
-67 -93 0
67 117 0
-67 -117 0
67 122 0
-67 -122 0
67 133 0
-67 -133 0
67 141 0
-67 -141 0
67 143 0
-67 -143 0
67 150 0
-67 -150 0
67 197 0
-67 -197 0
68 81 0
-68 -81 0
68 131 0
-68 -131 0
69 92 0
-69 -92 0
69 107 0
-69 -107 0
69 142 0
-69 -142 0
70 97 0
-70 -97 0
70 120 0
-70 -120 0
70 123 0
-70 -123 0
70 129 0
-70 -129 0
70 135 0
-70 -135 0
70 159 0
-70 -159 0
71 117 0
-71 -117 0
71 134 0
-71 -134 0
71 144 0
-71 -144 0
71 153 0
-71 -153 0
71 174 0
-71 -174 0
71 189 0
-71 -189 0
71 192 0
-71 -192 0
72 141 0
-72 -141 0
73 74 0
-73 -74 0
73 86 0
-73 -86 0
73 88 0
-73 -88 0
73 97 0
-73 -97 0
73 198 0
-73 -198 0
74 89 0
-74 -89 0
75 81 0
-75 -81 0
75 158 0
-75 -158 0
75 172 0
-75 -172 0
76 131 0
-76 -131 0
76 162 0
-76 -162 0
76 187 0
-76 -187 0
77 95 0
-77 -95 0
77 111 0
-77 -111 0
77 134 0
-77 -134 0
77 144 0
-77 -144 0
77 173 0
-77 -173 0
77 174 0
-77 -174 0
77 179 0
-77 -179 0
78 115 0
-78 -115 0
78 141 0
-78 -141 0
78 142 0
-78 -142 0
78 184 0
-78 -184 0
78 198 0
-78 -198 0
79 91 0
-79 -91 0
79 110 0
-79 -110 0
79 141 0
-79 -141 0
79 144 0
-79 -144 0
79 146 0
-79 -146 0
79 179 0
-79 -179 0
80 102 0
-80 -102 0
80 113 0
-80 -113 0
80 114 0
-80 -114 0
80 121 0
-80 -121 0
80 134 0
-80 -134 0
80 145 0
-80 -145 0
80 157 0
-80 -157 0
80 167 0
-80 -167 0
80 170 0
-80 -170 0
80 182 0
-80 -182 0
80 198 0
-80 -198 0
81 83 0
-81 -83 0
81 156 0
-81 -156 0
81 165 0
-81 -165 0
81 177 0
-81 -177 0
81 193 0
-81 -193 0
81 194 0
-81 -194 0
82 89 0
-82 -89 0
82 99 0
-82 -99 0
82 143 0
-82 -143 0
82 164 0
-82 -164 0
82 174 0
-82 -174 0
82 188 0
-82 -188 0
83 84 0
-83 -84 0
83 110 0
-83 -110 0
83 117 0
-83 -117 0
83 128 0
-83 -128 0
83 152 0
-83 -152 0
84 88 0
-84 -88 0
84 95 0
-84 -95 0
84 125 0
-84 -125 0
84 131 0
-84 -131 0
84 152 0
-84 -152 0
84 156 0
-84 -156 0
84 178 0
-84 -178 0
85 89 0
-85 -89 0
85 118 0
-85 -118 0
85 126 0
-85 -126 0
85 138 0
-85 -138 0
85 158 0
-85 -158 0
85 183 0
-85 -183 0
86 95 0
-86 -95 0
86 174 0
-86 -174 0
87 137 0
-87 -137 0
87 166 0
-87 -166 0
88 122 0
-88 -122 0
88 140 0
-88 -140 0
88 152 0
-88 -152 0
88 174 0
-88 -174 0
88 182 0
-88 -182 0
88 193 0
-88 -193 0
89 109 0
-89 -109 0
89 112 0
-89 -112 0
89 188 0
-89 -188 0
90 121 0
-90 -121 0
90 149 0
-90 -149 0
91 163 0
-91 -163 0
91 190 0
-91 -190 0
92 168 0
-92 -168 0
92 171 0
-92 -171 0
92 179 0
-92 -179 0
93 94 0
-93 -94 0
93 106 0
-93 -106 0
93 160 0
-93 -160 0
93 179 0
-93 -179 0
94 152 0
-94 -152 0
94 154 0
-94 -154 0
94 173 0
-94 -173 0
95 180 0
-95 -180 0
96 106 0
-96 -106 0
96 130 0
-96 -130 0
96 176 0
-96 -176 0
97 107 0
-97 -107 0
97 125 0
-97 -125 0
98 111 0
-98 -111 0
98 124 0
-98 -124 0
99 104 0
-99 -104 0
100 145 0
-100 -145 0
100 156 0
-100 -156 0
101 158 0
-101 -158 0
102 131 0
-102 -131 0
102 140 0
-102 -140 0
102 175 0
-102 -175 0
103 147 0
-103 -147 0
104 134 0
-104 -134 0
104 147 0
-104 -147 0
104 162 0
-104 -162 0
104 171 0
-104 -171 0
105 132 0
-105 -132 0
105 174 0
-105 -174 0
105 175 0
-105 -175 0
105 176 0
-105 -176 0
106 108 0
-106 -108 0
106 183 0
-106 -183 0
106 187 0
-106 -187 0
107 110 0
-107 -110 0
107 160 0
-107 -160 0
107 181 0
-107 -181 0
108 126 0
-108 -126 0
108 130 0
-108 -130 0
108 142 0
-108 -142 0
108 156 0
-108 -156 0
108 160 0
-108 -160 0
108 163 0
-108 -163 0
108 164 0
-108 -164 0
108 176 0
-108 -176 0
108 188 0
-108 -188 0
108 194 0
-108 -194 0
109 123 0
-109 -123 0
109 148 0
-109 -148 0
109 156 0
-109 -156 0
109 169 0
-109 -169 0
109 192 0
-109 -192 0
110 125 0
-110 -125 0
110 139 0
-110 -139 0
110 165 0
-110 -165 0
111 195 0
-111 -195 0
112 149 0
-112 -149 0
112 176 0
-112 -176 0
113 131 0
-113 -131 0
113 155 0
-113 -155 0
113 198 0
-113 -198 0
114 176 0
-114 -176 0
115 123 0
-115 -123 0
115 190 0
-115 -190 0
115 198 0
-115 -198 0
116 133 0
-116 -133 0
116 151 0
-116 -151 0
116 177 0
-116 -177 0
116 195 0
-116 -195 0
117 120 0
-117 -120 0
117 151 0
-117 -151 0
117 153 0
-117 -153 0
117 171 0
-117 -171 0
118 134 0
-118 -134 0
118 139 0
-118 -139 0
118 180 0
-118 -180 0
119 121 0
-119 -121 0
119 138 0
-119 -138 0
119 141 0
-119 -141 0
119 146 0
-119 -146 0
119 159 0
-119 -159 0
119 167 0
-119 -167 0
119 185 0
-119 -185 0
119 191 0
-119 -191 0
120 127 0
-120 -127 0
120 153 0
-120 -153 0
120 193 0
-120 -193 0
121 133 0
-121 -133 0
121 149 0
-121 -149 0
121 151 0
-121 -151 0
121 176 0
-121 -176 0
121 190 0
-121 -190 0
122 167 0
-122 -167 0
122 193 0
-122 -193 0
123 139 0
-123 -139 0
123 184 0
-123 -184 0
124 200 0
-124 -200 0
125 150 0
-125 -150 0
126 166 0
-126 -166 0
127 185 0
-127 -185 0
127 187 0
-127 -187 0
128 164 0
-128 -164 0
129 141 0
-129 -141 0
129 194 0
-129 -194 0
130 150 0
-130 -150 0
130 175 0
-130 -175 0
131 135 0
-131 -135 0
131 138 0
-131 -138 0
131 148 0
-131 -148 0
131 190 0
-131 -190 0
132 194 0
-132 -194 0
132 198 0
-132 -198 0
133 160 0
-133 -160 0
133 194 0
-133 -194 0
134 151 0
-134 -151 0
134 191 0
-134 -191 0
135 146 0
-135 -146 0
135 164 0
-135 -164 0
135 181 0
-135 -181 0
136 163 0
-136 -163 0
136 176 0
-136 -176 0
136 189 0
-136 -189 0
137 139 0
-137 -139 0
137 143 0
-137 -143 0
137 169 0
-137 -169 0
137 173 0
-137 -173 0
137 199 0
-137 -199 0
138 142 0
-138 -142 0
138 171 0
-138 -171 0
138 183 0
-138 -183 0
139 165 0
-139 -165 0
140 163 0
-140 -163 0
141 142 0
-141 -142 0
141 148 0
-141 -148 0
142 178 0
-142 -178 0
143 144 0
-143 -144 0
143 159 0
-143 -159 0
143 193 0
-143 -193 0
143 196 0
-143 -196 0
144 163 0
-144 -163 0
144 187 0
-144 -187 0
146 192 0
-146 -192 0
147 186 0
-147 -186 0
148 155 0
-148 -155 0
149 161 0
-149 -161 0
149 200 0
-149 -200 0
150 155 0
-150 -155 0
151 180 0
-151 -180 0
152 153 0
-152 -153 0
152 179 0
-152 -179 0
152 191 0
-152 -191 0
152 192 0
-152 -192 0
154 157 0
-154 -157 0
154 163 0
-154 -163 0
154 182 0
-154 -182 0
155 169 0
-155 -169 0
155 175 0
-155 -175 0
156 162 0
-156 -162 0
156 165 0
-156 -165 0
156 193 0
-156 -193 0
157 165 0
-157 -165 0
157 174 0
-157 -174 0
157 189 0
-157 -189 0
158 168 0
-158 -168 0
158 180 0
-158 -180 0
158 200 0
-158 -200 0
159 166 0
-159 -166 0
160 194 0
-160 -194 0
161 169 0
-161 -169 0
161 172 0
-161 -172 0
162 191 0
-162 -191 0
164 171 0
-164 -171 0
165 168 0
-165 -168 0
166 168 0
-166 -168 0
166 178 0
-166 -178 0
169 175 0
-169 -175 0
173 174 0
-173 -174 0
174 187 0
-174 -187 0
177 190 0
-177 -190 0
178 179 0
-178 -179 0
178 189 0
-178 -189 0
178 196 0
-178 -196 0
180 182 0
-180 -182 0
180 184 0
-180 -184 0
180 196 0
-180 -196 0
184 197 0
-184 -197 0
187 196 0
-187 -196 0
